Route #1: 75 68 30 2 62 22 1 73 33 6
Route #2: 48 5 37 20 70 60 71 69 36 47 21
Route #3: 74 28 61 64 42 43 41 56 23 63
Route #4: 16 49 24 18 50 25 55 31 10
Route #5: 38 65 11 66 59 14 19
Route #6: 4 45 29 15 57 54 13 27 52 67
Route #7: 34 46 8 35 7 53 58 72 39 9
Route #8: 17 51 3 44 32 40 12 26
Cost 775